
Value of objective function: 1.68023256

Actual values of the variables:
score                     1.68023
x_0_t_1                       0.5
x_1_t_1                       0.5
x_0_t_0                         0
x_0_t_2                       0.5
x_0_t_3                       0.5
x_0_t_4                         1
x_0_t_5                         1
x_0_t_6                         1
x_0_t_7                         1
x_0_t_8                         1
x_0_t_9                         1
x_0_t_10                        1
x_0_t_11                        1
x_0_t_12                        1
x_0_t_13                        1
x_0_t_14                        1
x_1_t_0                         0
x_1_t_2                  0.819767
x_1_t_3                  0.819767
x_1_t_4                  0.819767
x_1_t_5                  0.819767
x_1_t_6                  0.819767
x_1_t_7                  0.819767
x_1_t_8                  0.819767
x_1_t_9                  0.819767
x_1_t_10                 0.819767
x_1_t_11                 0.819767
x_1_t_12                 0.819767
x_1_t_13                 0.819767
x_1_t_14                 0.819767
x_10_t_0                        0
x_10_t_1                        0
x_10_t_2                        0
x_10_t_3                        0
x_10_t_4                        0
x_10_t_5                        0
x_10_t_6                        0
x_10_t_7                        0
x_10_t_8                        0
x_10_t_9                        0
x_10_t_10                0.424419
x_10_t_11                       1
x_10_t_12                       1
x_10_t_13                       1
x_10_t_14                       1
x_11_t_0                        0
x_11_t_1                        0
x_11_t_2                        0
x_11_t_3                        0
x_11_t_4                        0
x_11_t_5                        0
x_11_t_6                        0
x_11_t_7                        0
x_11_t_8                        0
x_11_t_9                        0
x_11_t_10                       0
x_11_t_11                       0
x_11_t_12                       0
x_11_t_13                       0
x_11_t_14                       0
x_12_t_0                        0
x_12_t_1                        0
x_12_t_2                        0
x_12_t_3                        0
x_12_t_4                        0
x_12_t_5                        0
x_12_t_6                        0
x_12_t_7                        0
x_12_t_8                        0
x_12_t_9                        0
x_12_t_10                       0
x_12_t_11                       0
x_12_t_12                0.267442
x_12_t_13                0.947674
x_12_t_14                0.947674
x_13_t_0                        0
x_13_t_1                        0
x_13_t_2                        0
x_13_t_3                        0
x_13_t_4                        0
x_13_t_5                        0
x_13_t_6                        0
x_13_t_7                        0
x_13_t_8                        0
x_13_t_9                        0
x_13_t_10                       0
x_13_t_11                       0
x_13_t_12                       0
x_13_t_13               0.0523256
x_13_t_14               0.0523256
x_2_t_0                         0
x_2_t_1                         0
x_2_t_2                  0.180233
x_2_t_3                  0.459302
x_2_t_4                  0.459302
x_2_t_5                  0.459302
x_2_t_6                  0.459302
x_2_t_7                  0.459302
x_2_t_8                  0.459302
x_2_t_9                  0.459302
x_2_t_10                 0.459302
x_2_t_11                 0.459302
x_2_t_12                 0.459302
x_2_t_13                 0.459302
x_2_t_14                 0.459302
x_3_t_0                         0
x_3_t_1                         0
x_3_t_2                         0
x_3_t_3                  0.540698
x_3_t_4                  0.540698
x_3_t_5                  0.540698
x_3_t_6                  0.843023
x_3_t_7                  0.843023
x_3_t_8                  0.843023
x_3_t_9                  0.843023
x_3_t_10                 0.843023
x_3_t_11                 0.843023
x_3_t_12                 0.843023
x_3_t_13                 0.843023
x_3_t_14                 0.843023
x_4_t_0                         0
x_4_t_1                         0
x_4_t_2                         0
x_4_t_3                         0
x_4_t_4                         0
x_4_t_5                  0.575581
x_4_t_6                  0.575581
x_4_t_7                  0.575581
x_4_t_8                  0.575581
x_4_t_9                  0.575581
x_4_t_10                 0.575581
x_4_t_11                 0.575581
x_4_t_12                 0.575581
x_4_t_13                 0.575581
x_4_t_14                 0.575581
x_5_t_0                         0
x_5_t_1                         0
x_5_t_2                         0
x_5_t_3                         0
x_5_t_4                         0
x_5_t_5                  0.424419
x_5_t_6                  0.424419
x_5_t_7                  0.424419
x_5_t_8                  0.680233
x_5_t_9                  0.680233
x_5_t_10                 0.680233
x_5_t_11                 0.680233
x_5_t_12                 0.680233
x_5_t_13                 0.680233
x_5_t_14                 0.680233
x_6_t_0                         0
x_6_t_1                         0
x_6_t_2                         0
x_6_t_3                         0
x_6_t_4                         0
x_6_t_5                         0
x_6_t_6                  0.156977
x_6_t_7                  0.837209
x_6_t_8                  0.837209
x_6_t_9                  0.837209
x_6_t_10                 0.837209
x_6_t_11                 0.837209
x_6_t_12                 0.837209
x_6_t_13                 0.837209
x_6_t_14                 0.837209
x_7_t_0                         0
x_7_t_1                         0
x_7_t_2                         0
x_7_t_3                         0
x_7_t_4                         0
x_7_t_5                         0
x_7_t_6                         0
x_7_t_7                  0.162791
x_7_t_8                  0.162791
x_7_t_9                  0.162791
x_7_t_10                 0.575581
x_7_t_11                 0.575581
x_7_t_12                 0.575581
x_7_t_13                 0.575581
x_7_t_14                        1
x_8_t_0                         0
x_8_t_1                         0
x_8_t_2                         0
x_8_t_3                         0
x_8_t_4                         0
x_8_t_5                         0
x_8_t_6                         0
x_8_t_7                         0
x_8_t_8                  0.319767
x_8_t_9                         1
x_8_t_10                        1
x_8_t_11                        1
x_8_t_12                        1
x_8_t_13                        1
x_8_t_14                        1
x_9_t_0                         0
x_9_t_1                         0
x_9_t_2                         0
x_9_t_3                         0
x_9_t_4                         0
x_9_t_5                         0
x_9_t_6                         0
x_9_t_7                         0
x_9_t_8                         0
x_9_t_9                         0
x_9_t_10                        0
x_9_t_11                 0.104651
x_9_t_12                 0.732558
x_9_t_13                 0.732558
x_9_t_14                 0.732558
